
Log started (V12.9.0.0) Thu Sep 10 16:51:58 2020

New value for parallel optimization mode: -1
New value for mixed integer optimality gap tolerance: 0.02
New value for integrality tolerance: 1e-12
New value for deterministic time limit in ticks: 45000

Problem 'C:\Users\llavin\Desktop\test826\logs\tmpow1gpapw.pyomo.lp' read.
Read time = 0.50 sec. (28.97 ticks)
MIP start file 'C:\Users\llavin\Desktop\test826\logs\tmpg3vmm2gr.cplex.mst' read.

Problem name         : C:\Users\llavin\Desktop\test826\logs\tmpow1gpapw.pyomo.lp
Objective sense      : Maximize
Variables            :  109243  [Nneg: 1,  Box: 45502,  Free: 8928,
                                 Binary: 54812]
Objective nonzeros   :   19733
Linear constraints   :  246963  [Less: 82886,  Greater: 118460,  Equal: 45617]
  Nonzeros           :  621605
  RHS nonzeros       :  135881

Variables            : Min LB: -5000.000        Max UB: 1000000.       
Objective nonzeros   : Min   : 0.001000000      Max   : 208.3333       
Linear constraints   :
  Nonzeros           : Min   : 0.001000000      Max   : 1000000.       
  RHS nonzeros       : Min   : 0.001000000      Max   : 1000000.       
CPXPARAM_Parallel                                -1
CPXPARAM_DetTimeLimit                            45000
CPXPARAM_MIP_Tolerances_MIPGap                   0.02
CPXPARAM_MIP_Tolerances_Integrality              9.9999999999999998e-13
Warning:  No solution found from 1 MIP starts.
Retaining values of one MIP start for possible repair.
Tried aggregator 3 times.
MIP Presolve eliminated 176489 rows and 38649 columns.
MIP Presolve added 7020 rows and 0 columns.
MIP Presolve modified 51748 coefficients.
Aggregator did 25907 substitutions.
Reduced MIP has 51587 rows, 43791 columns, and 164393 nonzeros.
Reduced MIP has 17302 binaries, 0 generals, 0 SOSs, and 0 indicators.
Presolve time = 0.61 sec. (396.86 ticks)
Probing fixed 885 vars, tightened 16918 bounds.
Probing time = 0.45 sec. (19.82 ticks)
Tried aggregator 2 times.
MIP Presolve eliminated 2054 rows and 1774 columns.
MIP Presolve modified 6406 coefficients.
Aggregator did 96 substitutions.
Reduced MIP has 49437 rows, 41921 columns, and 144807 nonzeros.
Reduced MIP has 16417 binaries, 0 generals, 0 SOSs, and 0 indicators.
Presolve time = 0.28 sec. (257.77 ticks)
Probing fixed 0 vars, tightened 512 bounds.
Probing time = 0.56 sec. (17.78 ticks)
Clique table members: 83988.
MIP emphasis: balance optimality and feasibility.
MIP search method: dynamic search.
Parallel mode: opportunistic, using up to 32 threads.
Root relaxation solution time = 1.45 sec. (2745.43 ticks)

        Nodes                                         Cuts/
   Node  Left     Objective  IInf  Best Integer    Best Bound    ItCnt     Gap

      0     0    13495.5561  1372                  13495.5561    12802         
      0     0    13476.4649  1230                  Cuts: 1046    13432         
      0     0    13471.2675  1189                   Cuts: 326    13624         
      0     0    13461.8074  1170                   Cuts: 166    13787         
      0     0    13455.6255  1161                   Cuts: 123    13872         
      0     0    13416.5503  1158                   Cuts: 122    13971         
      0     0    13352.9545  1154                   Cuts: 200    14068         
      0     0    13256.9094  1157                    Cuts: 98    14170         
      0     0    13227.7848  1119                   Cuts: 176    14284         
      0     0    13138.4785  1172                   Cuts: 186    14436         
      0     0    13118.3604  1101                   Cuts: 167    14539         
      0     0    13112.9953  1121                   Cuts: 106    14621         
      0     0    13107.5670  1125                    Cuts: 40    14681         
      0     0    13104.0067  1120                    Cuts: 39    14712         
      0     0    13076.6829  1092                    Cuts: 74    14781         
      0     0    13075.2976  1098                    Cuts: 12    14803         
      0     0    13074.7901   153                 Flowcuts: 4    14820         
      0     0    13074.7901   155                    Cuts: 25    14835         
Repair heuristic found nothing.
      0     9     9464.2333   278                    Cuts: 38    17180         
Elapsed time = 26.70 sec. (17902.69 ticks, tree = 0.02 MB, solutions = 0)
    107    16    10499.9477   301                  12855.9124    18493         
    268   105     9774.6280   244                  12855.9124    31317         
    436   101    11251.1168   179                  12855.9124    31870         
    592   220     9152.9417   244                  12855.6381    50887         
    748   400    10030.0936   285                  12855.6381    63421         
    889   573     9655.0102   231                  12855.6381    76548         
   1006   714    10568.1037    87                  12855.6381    89379         
   1186   794    10888.3786   214                  12855.6381    94471         
   1386  1105    -2954.7081   410                  12855.6381   117529         
   2335  1791    10502.8084   101                  12855.6381   164584         
Elapsed time = 45.83 sec. (21019.47 ticks, tree = 21.66 MB, solutions = 0)
   3229  2021    10450.3073    17                  12855.6381   182121         
   4042  2978    10252.7122    32                  12855.6381   230930         
   4852  3612     7297.2989   256                  12855.6381   268774         
   5531  4106    infeasible                        12855.6381   302734         

Clique cuts applied:  257
Cover cuts applied:  2
Implied bound cuts applied:  137
Flow cuts applied:  626
Mixed integer rounding cuts applied:  13
Zero-half cuts applied:  1
Gomory fractional cuts applied:  15

Root node processing (before b&c):
  Real time             =   22.94 sec. (17833.55 ticks)
Parallel b&c, 32 threads:
  Real time             =   51.64 sec. (12419.10 ticks)
  Sync time (average)   =    1.59 sec.
  Wait time (average)   =    0.00 sec.
                          ------------
Total (root+branch&cut) =   74.58 sec. (30252.65 ticks)


MIP - Aborted, no integer solution.
Current MIP best bound =  1.2855638123e+04 (gap is infinite)
Solution time =   74.61 sec.  Iterations = 396114  Nodes = 5802 (5125)
Deterministic time = 30252.97 ticks  (405.49 ticks/sec)


CPLEX Error  1217: No solution exists.
No file written.
